N = 32;
M = 102;
Edge_Start = [1, 1, 2, 2, 3, 3, 4, 4, 5, 5, 6, 6, 7, 8, 9, 9, 10, 10, 11, 12, 12, 13, 13, 14, 14, 15, 15, 16, 18, 19, 20, 20, 21, 22, 22, 23, 24, 24, 25, 26, 26, 27, 27, 28, 28, 29, 29, 30, 31, 31, 32, 3, 4, 3, 22, 1, 5, 1, 15, 2, 31, 11, 31, 9, 32, 8, 16, 9, 14, 5, 13, 21, 12, 15, 1, 3, 4, 13, 21, 26, 18, 6, 11, 10, 7, 9, 24, 23, 29, 7, 20, 27, 19, 30, 19, 30, 2, 25, 28, 23, 29, 17];
Edge_End = [3, 4, 3, 22, 1, 5, 1, 15, 2, 31, 11, 31, 9, 32, 8, 16, 9, 14, 5, 13, 21, 12, 15, 1, 3, 4, 13, 21, 26, 18, 6, 11, 10, 7, 9, 24, 23, 29, 7, 20, 27, 19, 30, 19, 30, 2, 25, 28, 23, 29, 17, 1, 1, 2, 2, 3, 3, 4, 4, 5, 5, 6, 6, 7, 8, 9, 9, 10, 10, 11, 12, 12, 13, 13, 14, 14, 15, 15, 16, 18, 19, 20, 20, 21, 22, 22, 23, 24, 24, 25, 26, 26, 27, 27, 28, 28, 29, 29, 30, 31, 31, 32];
L = [9, 271, 18, 188, 9, 17, 271, 462, 14, 10, 142, 427, 142, 497, 381, 8, 16, 35, 286, 182, 20, 182, 172, 402, 401, 462, 172, 17, 9, 20, 300, 441, 8, 98, 237, 8, 8, 561, 82, 164, 20, 9, 360, 356, 14, 10, 201, 14, 563, 14, 497, 9, 271, 18, 188, 9, 17, 271, 462, 14, 10, 142, 427, 142, 497, 381, 8, 16, 35, 286, 182, 20, 182, 172, 402, 401, 462, 172, 17, 9, 20, 300, 441, 8, 98, 237, 8, 8, 561, 82, 164, 20, 9, 360, 356, 14, 10, 201, 14, 563, 14, 497];
T = [0, 24, 1, 11, 0, 1, 24, 41, 0, 0, 9, 28, 9, 39, 30, 0, 1, 2, 17, 17, 1, 17, 16, 27, 24, 41, 16, 1, 0, 1, 20, 27, 0, 6, 14, 1, 1, 39, 5, 10, 1, 0, 34, 33, 1, 0, 13, 1, 40, 1, 21, 0, 24, 1, 11, 0, 1, 24, 41, 0, 0, 9, 28, 9, 39, 30, 0, 1, 2, 17, 17, 1, 17, 16, 27, 24, 41, 16, 1, 0, 1, 20, 27, 0, 6, 14, 1, 1, 39, 5, 10, 1, 0, 34, 33, 1, 0, 13, 1, 40, 1, 21];
Lower_Bound = [57, 54, 55, 79, 54, 30, 72, 110, 79, 81, 37, 153, 137, 82, 120, 79, 169, 1, 1, 10, 80, 66, 94, 95, 68, 0, 1, 36, 55, 35, 54, 148];
Upper_Bound = [61, 55, 59, 80, 62, 35, 83, 112, 84, 88, 39, 154, 141, 97, 121, 80, 190, 2, 9, 14, 81, 67, 96, 98, 69, 4, 5, 44, 59, 37, 56, 149];
Start = 18;
End = 17;
Time = 190;
